# 88972
param k := 6;
param n := 60;
param s := 1;
set E :=  (0,36) (1,9) (1,22) (1,24) (1,25) (1,26) (2,29) (2,47) (3,5) (3,57) (4,18) (4,19) (4,29) (4,56) (5,27) (6,24) (7,22) (8,49) (9,53) (10,30) (11,45) (12,32) (12,36) (12,46) (12,54) (13,19) (13,28) (13,40) (14,51) (15,43) (16,39) (16,46) (17,19) (17,20) (19,42) (20,46) (21,26) (22,30) (22,39) (22,41) (23,30) (23,37) (24,50) (24,59) (25,53) (26,31) (26,43) (26,52) (28,34) (28,38) (28,49) (29,51) (31,36) (31,55) (33,35) (35,45) (35,55) (36,49) (37,58) (38,50) (40,41) (40,53) (44,46) (48,49) (50,57);